p td 100 100
0 1
0 99
1 2
2 3
3 4
4 5
5 6
6 76
7 8
8 9
9 10
10 11
11 12
12 13
13 14
14 15
15 16
16 17
17 18
18 28
19 20
20 21
21 22
22 23
23 24
24 25
25 26
26 27
27 81
28 29
29 30
30 31
31 32
32 33
33 34
34 35
35 36
36 37
36 61
37 38
38 39
39 40
40 41
41 42
42 43
43 44
43 91
44 45
45 46
46 47
47 48
48 49
49 50
50 51
51 52
52 53
53 54
54 55
55 56
56 57
57 58
58 59
59 60
60 61
62 63
63 64
64 65
65 66
66 67
67 68
68 69
69 70
70 71
71 72
72 73
73 74
74 75
75 76
75 78
76 77
77 78
79 80
80 81
81 82
82 83
83 84
84 85
85 86
86 87
87 92
88 89
89 90
90 91
92 93
93 99
94 95
95 96
96 97
97 98
98 99
